NAME: random103
TYPE: TSP
DIMENSION: 103
EDGE_WEIGHT_TYPE: EXPLICIT
EDGE_WEIGHT_FORMAT: FULL_MATRIX
EDGE_WEIGHT_SECTION
0 650 32 650 13 650 650 29 21 650 650 650 650 41 17 12 15 26 650 19 650 650 650 15 650 31 21 19 650 650 14 650 650 15 43 650 650 650 650 650 650 650 650 32 650 650 14 650 650 650 650 10 650 650 4 650 650 19 650 42 650 650 650 650 650 28 650 650 650 650 34 650 37 650 650 650 650 36 41 38 33 650 29 650 32 650 650 41 650 650 5 29 21 17 650 650 650 650 23 650 33 650 18
650 0 650 650 650 26 650 650 650 32 650 31 650 650 650 650 650 650 10 650 650 650 650 650 650 650 650 650 650 650 650 650 14 650 80 650 15 55 650 650 650 650 5 650 650 22 650 650 650 650 12 650 650 650 650 12 650 650 43 29 650 9 650 38 650 650 650 650 13 26 650 650 650 43 650 25 32 650 650 650 650 650 650 18 650 650 650 35 3 650 650 650 650 650 30 28 650 650 650 28 650 21 650
32 650 0 650 38 650 17 650 27 43 24 25 20 650 650 650 29 24 650 650 650 17 650 650 16 25 650 15 650 36 650 650 650 39 650 650 650 650 18 17 34 29 650 650 13 650 650 650 650 36 650 650 30 650 32 650 650 16 650 650 650 650 650 30 12 48 34 650 650 32 31 34 12 650 650 650 650 46 650 650 650 26 30 650 6 24 650 650 650 12 28 23 650 24 650 28 650 37 650 28 28 650 650
650 650 650 0 650 44 26 650 650 34 20 650 24 650 650 650 650 650 650 650 650 27 23 650 30 650 650 650 650 650 650 650 53 650 650 16 650 650 25 650 33 36 650 650 650 650 650 58 15 650 650 650 30 61 650 650 10 650 29 650 18 650 15 29 35 650 650 7 650 43 650 25 650 650 12 47 35 650 650 650 650 18 650 650 650 650 650 650 650 650 650 650 650 650 650 650 650 53 650 650 650 650 650
13 650 38 650 0 650 650 41 16 650 650 650 650 29 650 16 28 22 650 30 650 650 650 27 650 27 9 23 650 650 27 650 650 3 32 650 650 650 650 650 650 650 650 24 650 650 12 650 650 650 650 21 650 650 17 650 650 29 650 37 650 650 650 650 650 16 650 650 650 650 28 650 39 650 650 650 650 25 53 26 21 650 650 650 39 650 650 32 650 650 17 26 650 29 650 650 650 650 650 650 650 650 6
650 26 650 44 650 0 650 650 650 11 650 650 650 650 650 650 650 650 24 650 650 650 22 650 650 650 650 650 650 650 650 650 12 650 650 47 14 650 650 650 650 650 21 650 650 36 650 650 50 650 37 650 650 650 650 17 650 650 18 650 53 34 650 24 650 650 650 47 32 23 650 23 650 650 49 3 10 650 650 650 650 46 650 39 650 650 650 650 23 650 650 650 650 650 650 28 650 650 650 28 650 650 650
650 650 17 26 650 650 0 650 650 33 8 650 6 650 650 650 650 650 650 650 650 4 26 650 9 650 650 32 650 650 650 650 650 650 650 650 650 650 1 6 650 25 650 650 13 650 650 650 650 650 650 650 22 650 650 650 650 650 650 650 650 650 32 20 11 650 650 650 650 29 650 21 20 650 650 650 650 650 650 650 650 9 650 650 19 650 650 650 650 12 650 650 650 650 650 650 650 650 650 29 38 650 650
29 650 650 650 41 650 650 0 650 650 650 650 650 650 14 29 18 650 650 12 13 650 650 14 650 650 48 650 21 23 16 4 650 44 64 650 650 69 650 650 650 650 650 52 650 650 36 37 650 20 650 21 650 36 25 650 650 650 650 650 650 650 650 650 650 57 18 650 650 650 650 650 650 650 650 650 650 650 13 650 62 650 19 650 650 650 17 650 650 650 650 650 10 22 87 650 17 38 12 650 650 650 45
21 650 27 650 16 650 650 650 0 650 650 24 650 25 35 30 31 7 650 39 650 650 650 35 650 11 21 14 650 650 33 650 650 15 45 650 650 30 650 650 650 650 650 39 40 28 27 650 650 650 650 30 650 650 24 650 650 25 650 22 650 650 650 650 32 21 650 650 650 650 13 650 24 28 650 650 650 20 650 24 24 650 42 34 30 24 650 22 650 31 21 10 650 30 39 650 650 650 40 31 44 36 21
650 32 43 34 650 11 33 650 650 0 37 31 38 650 650 650 650 650 26 650 650 37 12 650 650 650 650 650 650 650 650 650 19 650 650 40 23 650 32 650 650 650 27 650 45 35 650 650 42 650 650 650 53 650 650 26 44 650 14 650 45 37 49 14 31 650 650 38 40 18 650 12 34 650 41 14 1 650 650 650 650 35 650 40 650 31 650 650 29 32 650 650 650 650 650 23 650 650 650 23 650 650 650
650 650 24 20 650 650 8 650 650 37 0 650 4 650 650 650 650 650 650 650 650 7 28 650 10 650 650 650 650 650 650 650 650 650 650 37 650 650 8 7 21 21 650 650 15 650 650 43 650 650 650 650 16 650 650 650 26 650 39 650 38 650 24 25 19 650 650 27 650 36 650 25 650 650 650 650 650 650 650 650 650 3 650 650 650 650 650 650 650 20 650 650 650 650 650 650 650 37 650 36 39 650 650
650 31 25 650 650 650 650 650 24 31 650 0 650 34 650 650 650 17 22 650 650 650 650 650 650 12 650 25 650 650 650 650 32 650 650 650 650 650 30 650 650 650 31 650 650 13 650 650 650 650 650 650 650 650 650 650 650 650 650 9 650 28 650 23 20 650 650 650 650 13 15 28 13 36 650 650 650 33 650 650 650 650 650 22 650 1 650 25 31 19 650 13 650 650 37 8 650 650 650 8 650 28 650
650 650 20 24 650 650 6 650 650 38 4 650 0 650 650 650 650 650 650 650 650 4 30 650 6 650 650 650 650 650 650 650 650 650 650 650 650 650 6 3 20 19 650 650 11 650 650 41 650 650 650 650 16 650 650 650 30 650 650 650 42 650 28 25 16 650 650 650 650 35 650 26 650 650 650 650 650 650 650 650 650 6 650 650 21 650 650 650 650 17 650 650 650 650 650 650 650 35 650 35 36 650 650
41 650 650 650 29 650 650 650 25 650 650 34 650 0 650 650 650 26 40 650 650 650 650 650 650 26 26 38 650 650 650 650 650 27 37 650 650 13 650 650 650 650 650 650 650 27 650 650 650 650 43 650 650 650 650 650 650 650 650 26 650 34 650 650 650 17 650 650 650 650 20 650 650 3 650 650 650 5 650 4 14 650 650 25 650 650 650 9 650 650 43 650 650 650 19 40 650 650 650 650 650 22 650
17 650 650 650 650 650 650 14 35 650 650 650 650 650 0 21 5 650 650 10 18 650 650 5 650 650 650 27 24 650 3 13 650 650 650 650 650 650 650 650 650 650 650 44 650 650 650 650 650 650 650 10 650 650 12 650 650 18 650 650 650 650 650 650 650 650 18 650 650 650 650 650 650 650 650 650 650 650 24 650 650 650 15 650 650 650 16 650 650 650 14 650 4 10 650 650 15 650 7 650 21 650 650
12 650 650 650 16 650 650 29 30 650 650 650 650 650 21 0 22 36 650 17 38 650 650 16 650 650 20 31 44 650 19 31 650 19 36 650 650 42 650 650 650 650 650 24 650 650 7 650 650 650 650 10 650 59 13 650 650 30 650 650 650 650 650 650 650 29 650 650 650 650 43 650 650 650 650 650 650 40 42 650 35 650 650 650 650 650 650 650 650 650 16 650 24 26 64 650 650 650 28 650 650 650 17
15 650 29 650 28 650 650 18 31 650 650 650 650 650 5 22 0 35 650 14 20 650 650 9 650 650 650 22 24 24 5 17 650 30 650 650 650 650 650 650 650 42 650 650 35 650 28 650 650 21 650 12 650 650 11 650 650 13 650 650 650 650 650 650 650 43 18 650 650 650 44 650 39 650 650 650 650 50 27 650 650 650 14 650 26 650 15 650 650 650 12 37 9 5 650 650 14 35 8 650 19 650 650
26 650 24 650 22 650 650 650 7 650 650 17 650 26 650 36 35 0 650 650 650 650 650 650 650 5 28 14 650 650 650 650 650 22 50 650 650 650 650 650 650 650 650 650 37 22 34 650 650 650 650 35 650 650 29 650 650 26 650 16 650 650 650 650 27 26 650 650 650 650 9 650 19 29 650 650 650 22 650 25 28 650 650 29 28 17 650 20 650 26 25 4 650 32 37 25 650 650 650 25 45 32 27
650 10 650 650 650 24 650 650 650 26 650 22 650 40 650 650 650 650 0 650 650 650 36 650 650 31 650 650 650 650 650 650 13 650 650 650 17 650 46 650 650 650 9 650 650 15 650 650 650 650 21 650 650 650 650 16 650 650 39 21 650 12 650 29 38 650 650 650 23 17 30 32 33 40 650 24 26 41 650 650 650 650 650 15 650 22 650 31 9 37 650 650 650 650 31 18 650 650 650 18 650 21 650
19 650 650 650 30 650 650 12 39 650 650 650 650 650 10 17 14 650 650 0 23 650 650 6 650 650 36 650 30 650 10 14 650 33 52 650 650 57 650 650 650 650 650 39 650 650 24 650 650 650 650 9 650 45 16 650 650 650 650 650 650 650 650 650 650 45 650 650 650 650 650 650 650 650 650 650 650 650 25 650 50 650 24 650 650 650 23 650 650 650 19 650 10 20 77 650 23 650 15 650 650 650 33
650 650 650 650 650 650 650 13 650 650 650 650 650 650 18 38 20 650 650 23 0 650 650 22 650 650 56 650 8 10 21 9 650 650 74 650 650 650 650 650 650 39 650 62 40 650 45 24 650 8 650 650 650 23 30 650 650 28 650 650 650 650 650 650 650 650 7 650 650 650 650 650 650 650 650 650 650 650 10 650 650 650 11 650 36 650 7 650 650 650 32 650 14 21 650 650 9 25 12 650 15 650 52
650 650 17 27 650 650 4 650 650 37 7 650 4 650 650 650 650 650 650 650 650 0 30 650 6 650 650 32 650 41 650 650 650 650 650 650 650 650 5 2 23 21 650 650 9 650 650 650 650 42 650 650 18 650 650 650 650 31 650 650 650 650 31 24 13 650 42 650 650 33 650 25 21 650 650 650 650 650 650 650 650 9 39 650 17 650 650 650 650 14 650 650 650 38 650 650 650 35 650 32 34 650 650
650 650 650 23 650 22 26 650 650 12 28 650 30 650 650 650 650 650 36 650 650 30 0 650 35 650 650 650 650 650 650 650 31 650 650 30 35 650 25 650 47 48 38 650 650 650 650 70 32 650 650 650 43 650 650 38 32 650 12 650 35 650 37 12 28 650 650 27 52 24 650 7 650 650 30 25 12 650 650 650 650 25 650 650 650 650 650 650 650 29 650 650 650 650 650 28 650 650 650 28 650 650 650
15 650 650 650 27 650 650 14 35 650 650 650 650 650 5 16 9 650 650 6 22 650 650 0 650 650 34 650 650 650 4 15 650 650 52 650 650 650 650 650 650 650 650 40 650 650 23 650 650 650 650 7 650 650 11 650 650 650 650 650 650 650 650 650 650 650 650 650 650 650 650 650 650 650 650 650 650 650 26 650 650 650 20 650 650 650 20 650 650 650 14 650 8 14 650 650 20 650 12 650 650 650 31
650 650 16 30 650 650 9 650 650 650 10 650 6 650 650 650 650 650 650 650 650 6 35 650 0 650 650 31 650 36 650 650 650 650 650 650 650 650 10 4 19 16 650 650 5 650 650 36 650 37 650 650 15 38 650 650 35 28 650 650 48 650 32 29 16 650 37 650 650 650 650 31 24 650 650 650 650 650 650 650 650 12 34 650 15 650 650 650 650 17 650 650 650 34 650 650 650 30 650 650 29 650 650
31 650 25 650 27 650 650 650 11 650 650 12 650 26 650 650 650 5 31 650 650 650 650 650 650 0 650 17 650 650 650 650 650 26 650 650 650 650 650 650 650 650 650 650 650 17 650 650 650 650 650 650 650 650 650 650 650 30 650 11 650 650 650 34 650 29 650 650 650 26 7 650 17 29 650 650 650 23 650 26 31 650 650 25 29 12 650 19 650 24 30 2 650 650 35 20 650 650 650 20 650 29 650
21 650 650 650 9 650 650 48 21 650 650 650 650 26 650 20 650 28 650 36 56 650 650 34 650 650 0 31 60 650 650 49 650 7 24 650 650 21 650 650 650 650 650 18 650 650 14 650 650 650 68 28 650 74 650 650 650 650 650 650 650 650 650 650 650 9 650 650 650 650 30 650 650 28 650 650 650 22 61 22 14 650 650 650 650 650 650 31 650 650 25 650 41 650 45 650 650 650 650 650 650 46 3
19 650 15 650 23 650 32 650 14 650 650 25 650 38 27 31 22 14 650 650 650 32 650 650 31 17 31 0 650 39 25 650 650 24 55 650 650 650 33 32 650 42 650 650 27 650 32 650 650 37 650 27 650 650 20 650 650 12 650 28 650 650 650 40 24 34 35 650 650 36 23 650 18 650 650 650 650 34 650 37 38 650 30 650 16 25 650 34 650 23 16 15 650 19 650 32 650 44 30 31 31 650 30
650 650 650 650 650 650 650 21 650 650 650 650 650 650 24 44 24 650 650 30 8 650 650 650 650 650 60 650 0 4 650 17 650 650 80 650 650 650 650 650 37 33 650 68 36 650 51 17 650 4 650 650 650 16 650 650 650 29 650 650 650 650 63 650 650 650 6 650 650 650 650 650 650 650 650 650 650 650 14 650 650 650 11 650 34 650 9 650 650 650 650 650 21 24 650 650 10 17 17 650 12 650 57
650 650 36 650 650 650 650 23 650 650 650 650 650 650 650 650 24 650 650 650 10 41 650 650 36 650 650 39 4 0 650 19 650 650 650 650 650 650 650 40 34 29 650 68 32 650 650 15 650 3 650 650 35 14 650 650 650 26 650 650 650 650 59 650 46 650 6 650 650 650 650 650 650 650 650 650 650 650 18 650 650 650 10 650 30 650 8 650 650 650 35 650 650 22 650 650 9 15 17 650 8 650 650
14 650 650 650 27 650 650 16 33 650 650 650 650 650 3 19 5 650 650 10 21 650 650 4 650 650 650 25 650 650 0 16 650 650 650 650 650 650 650 650 650 650 650 42 650 650 24 650 650 650 650 8 650 650 10 650 650 17 650 650 650 650 650 650 650 650 650 650 650 650 650 650 650 650 650 650 650 650 650 650 650 650 17 650 650 650 18 650 650 650 12 650 7 10 650 650 17 650 10 650 23 650 650
650 650 650 650 650 650 650 4 650 650 650 650 650 650 13 31 17 650 650 14 9 650 650 15 650 650 49 650 17 19 16 0 650 650 67 650 650 650 650 650 650 650 650 54 650 650 38 34 650 17 650 22 650 32 25 650 650 28 650 650 650 650 650 650 650 650 14 650 650 650 650 650 650 650 650 650 650 650 12 650 650 650 16 650 650 650 13 650 650 650 27 650 9 20 650 650 14 34 10 650 21 650 46
650 14 650 53 650 12 650 650 650 19 650 32 650 650 650 650 650 650 13 650 650 650 31 650 650 650 650 650 650 650 650 650 0 650 650 58 6 650 48 650 650 650 9 650 650 28 650 650 650 650 25 650 650 650 650 7 650 650 30 33 650 22 650 28 43 650 650 650 21 21 650 30 41 650 650 12 19 650 650 650 650 52 650 29 650 32 650 44 11 42 650 650 650 650 650 25 650 650 650 25 650 33 650
15 650 39 650 3 650 650 44 15 650 650 650 650 27 650 19 30 22 650 33 650 650 650 650 650 26 7 24 650 650 650 650 650 0 31 650 650 25 650 650 650 650 650 24 650 650 14 650 650 650 650 24 650 650 20 650 650 31 650 35 650 650 650 650 650 13 650 650 650 650 26 650 39 650 650 650 650 22 56 23 18 650 650 650 40 650 650 29 650 650 19 25 650 31 45 650 650 650 650 650 650 650 6
43 80 650 650 32 650 650 64 45 650 650 650 650 37 650 36 650 50 650 52 74 650 650 52 650 650 24 55 80 650 650 67 650 31 0 650 650 25 650 650 650 650 650 13 650 63 30 650 650 650 80 46 650 95 650 650 650 650 650 59 650 71 650 650 650 24 650 650 90 650 50 650 650 38 650 650 650 35 78 34 25 650 650 62 650 650 650 46 650 650 47 650 60 650 54 650 650 650 650 650 650 59 26
650 650 650 16 650 47 650 650 650 40 37 650 650 650 650 650 650 650 650 650 650 650 30 650 650 650 650 650 650 650 650 650 58 650 650 0 61 650 41 650 47 650 650 650 650 650 650 73 4 650 650 650 45 650 650 650 15 650 29 650 6 650 24 40 650 650 650 10 79 53 650 35 650 650 6 49 40 650 650 650 650 34 650 650 650 650 650 650 650 650 650 650 650 650 650 650 650 650 650 650 650 650 650
650 15 650 650 650 14 650 650 650 23 650 650 650 650 650 650 650 650 17 650 650 650 35 650 650 650 650 650 650 650 650 650 6 650 650 61 0 650 650 650 650 650 10 650 650 32 650 650 650 650 24 650 650 650 650 4 650 650 32 650 650 24 650 33 650 650 650 650 18 27 650 34 650 650 650 12 22 650 650 650 650 650 650 32 650 650 650 650 12 650 650 650 650 650 45 31 650 650 650 31 650 36 650
650 55 650 650 650 650 650 69 30 650 650 650 650 13 650 42 650 650 650 57 650 650 650 650 650 650 21 650 650 650 650 650 650 25 25 650 650 0 650 650 650 650 650 30 650 39 35 650 650 650 54 650 650 650 650 650 650 650 650 38 650 46 650 650 650 13 650 650 64 650 30 650 650 12 650 650 650 13 82 10 7 650 650 38 650 650 650 22 650 650 650 650 650 650 29 650 650 650 650 650 650 34 24
650 650 18 25 650 650 1 650 650 32 8 30 6 650 650 650 650 650 46 650 650 5 25 650 10 650 650 33 650 650 650 650 48 650 650 41 650 650 0 6 26 25 650 650 13 650 650 46 650 650 650 650 22 650 650 650 32 650 37 650 43 650 31 19 11 650 650 32 650 29 650 21 20 650 650 650 33 650 650 650 650 8 650 650 20 30 650 650 650 12 650 650 650 650 650 29 650 650 650 29 39 650 650
650 650 17 650 650 650 6 650 650 650 7 650 3 650 650 650 650 650 650 650 650 2 650 650 4 650 650 32 650 40 650 650 650 650 650 650 650 650 6 0 21 19 650 650 8 650 650 650 650 40 650 650 17 650 650 650 650 31 650 650 650 650 31 26 14 650 41 650 650 650 650 27 23 650 650 650 650 650 650 650 650 10 38 650 17 650 650 650 650 15 650 650 650 37 650 650 650 34 650 650 33 650 650
650 650 34 33 650 650 650 650 650 650 21 650 20 650 650 650 650 650 650 650 650 23 47 650 19 650 650 650 37 34 650 650 650 650 650 47 650 650 26 21 0 6 650 650 21 650 650 26 45 36 650 650 5 28 650 650 33 40 650 650 46 650 26 650 35 650 38 38 650 650 650 45 650 650 41 650 650 650 52 650 650 22 37 650 30 650 650 650 650 650 650 650 650 43 650 650 650 21 650 650 31 650 650
650 650 29 36 650 650 25 650 650 650 21 650 19 650 650 650 42 650 650 650 39 21 48 650 16 650 650 42 33 29 650 650 650 650 650 650 650 650 25 19 6 0 650 650 17 650 650 23 650 31 650 650 6 25 650 650 37 35 650 650 50 650 30 45 33 650 32 650 650 650 650 45 40 650 650 650 650 650 47 650 650 23 32 650 26 650 34 650 650 33 49 650 650 38 650 650 33 17 40 650 26 650 650
650 5 650 650 650 21 650 650 650 27 650 31 650 650 650 650 650 650 9 650 650 650 38 650 650 650 650 650 650 650 650 650 9 650 650 650 10 650 650 650 650 650 0 650 650 24 650 650 650 650 17 650 650 650 650 8 650 650 38 29 650 14 650 34 650 650 650 650 15 23 650 36 650 650 650 20 27 650 650 650 650 650 650 22 650 650 650 38 2 650 650 650 650 650 650 26 650 650 650 26 650 26 650
32 650 650 650 24 650 650 52 39 650 650 650 650 650 44 24 650 650 650 39 62 650 650 40 650 650 18 650 68 68 42 54 650 24 13 650 650 30 650 650 650 650 650 0 650 650 18 83 650 66 83 34 650 83 35 650 650 650 650 650 650 650 650 650 650 23 63 650 650 650 650 650 650 41 650 650 650 36 65 35 26 650 650 650 650 650 60 46 650 650 37 650 48 650 58 650 650 81 52 650 650 61 18
650 650 13 650 650 650 13 650 40 45 15 650 11 650 650 650 35 37 650 650 40 9 650 650 5 650 650 27 36 32 650 650 650 650 650 650 650 650 13 8 21 17 650 650 0 650 650 34 650 33 650 650 17 36 650 650 650 23 650 650 650 650 37 32 16 650 33 650 650 38 650 34 23 650 650 650 650 650 650 650 650 17 30 650 11 34 33 650 650 17 37 36 650 29 650 650 32 28 36 36 25 650 650
650 22 650 650 650 36 650 650 28 35 650 13 650 27 650 650 650 22 15 650 650 650 650 650 650 17 650 650 650 650 650 650 28 650 63 650 32 39 650 650 650 650 24 650 650 0 650 650 650 650 29 650 650 650 650 31 650 650 650 6 650 17 650 32 650 39 650 650 35 18 15 650 25 28 650 38 35 27 650 30 38 650 650 10 650 13 650 18 23 32 650 19 650 650 25 15 650 650 650 15 650 15 650
14 650 650 650 12 650 650 36 27 650 650 650 650 650 650 7 28 34 650 24 45 650 650 23 650 650 14 32 51 650 24 38 650 14 30 650 650 35 650 650 650 650 650 18 650 650 0 650 650 650 650 17 650 65 17 650 650 33 650 650 650 650 650 650 650 23 650 650 650 650 39 650 650 650 650 650 650 35 49 650 28 650 650 650 650 650 650 650 650 650 19 650 30 31 58 650 650 650 650 650 650 650 11
650 650 650 58 650 650 650 37 650 650 43 650 41 650 650 650 650 650 650 650 24 650 70 650 36 650 650 650 17 15 650 34 650 650 650 73 650 650 46 650 26 23 650 83 34 650 650 0 70 18 650 650 29 2 650 650 58 38 650 650 71 650 50 650 650 650 21 63 650 650 650 66 650 650 67 650 650 650 29 650 650 45 24 650 37 650 650 650 650 650 650 650 650 36 650 650 650 6 650 650 20 650 650
650 650 650 15 650 50 650 650 650 42 650 650 650 650 650 650 650 650 650 650 650 650 32 650 650 650 650 650 650 650 650 650 650 650 650 4 650 650 650 650 45 650 650 650 650 650 650 70 0 650 650 650 42 650 650 650 12 650 32 650 3 650 20 650 650 650 650 8 650 650 650 36 650 650 4 52 42 650 650 650 650 33 650 650 650 650 650 650 650 650 650 650 650 650 650 650 650 650 650 650 650 650 650
650 650 36 650 650 650 650 20 650 650 650 650 650 650 650 650 21 650 650 650 8 42 650 650 37 650 650 37 4 3 650 17 650 650 650 650 650 650 650 40 36 31 650 66 33 650 650 18 650 0 650 650 37 17 650 650 650 25 650 650 650 650 650 650 46 650 3 650 650 650 650 650 650 650 650 650 650 650 17 650 650 650 7 650 30 650 6 650 650 650 32 650 650 20 650 650 7 17 14 650 8 650 650
650 12 650 650 650 37 650 650 650 650 650 650 650 43 650 650 650 650 21 650 650 650 650 650 650 650 68 650 650 650 650 650 25 650 80 650 24 54 650 650 650 650 17 83 650 29 650 650 650 650 0 650 650 650 650 20 650 650 55 36 650 13 650 650 650 60 650 650 11 38 42 650 650 42 650 36 650 47 650 47 57 650 650 22 650 650 650 37 15 650 650 650 650 650 26 38 650 650 650 650 650 21 650
10 650 650 650 21 650 650 21 30 650 650 650 650 650 10 10 12 35 650 9 650 650 650 7 650 650 28 27 650 650 8 22 650 24 46 650 650 650 650 650 650 650 650 34 650 650 17 650 650 650 650 0 650 650 7 650 650 22 650 650 650 650 650 650 650 36 650 650 650 650 44 650 650 650 650 650 650 45 33 650 650 650 650 650 650 650 650 650 650 650 11 650 14 17 650 650 650 650 18 650 650 650 24
650 650 30 30 650 650 22 650 650 53 16 650 16 650 650 650 650 650 650 650 650 18 43 650 15 650 650 650 650 35 650 650 650 650 650 45 650 650 22 17 5 6 650 650 17 650 650 29 42 37 650 650 0 31 650 650 31 38 54 650 44 650 24 41 31 650 38 35 650 650 650 41 650 650 39 650 650 650 650 650 650 18 37 650 27 650 650 650 650 650 650 650 650 42 650 650 650 24 650 650 31 650 650
650 650 650 61 650 650 650 36 650 650 650 650 650 650 650 59 650 650 650 45 23 650 650 650 38 650 74 650 16 14 650 32 650 650 95 650 650 650 650 650 28 25 650 83 36 650 65 2 650 17 650 650 31 0 650 650 60 38 650 650 74 650 53 650 650 650 20 650 650 650 650 650 650 650 650 650 650 650 27 650 650 47 23 650 38 650 23 650 650 650 650 650 36 36 650 650 23 8 31 650 20 650 71
4 650 32 650 17 650 650 25 24 650 650 650 650 650 12 13 11 29 650 16 30 650 650 11 650 650 650 20 650 650 10 25 650 20 650 650 650 650 650 650 650 650 650 35 650 650 17 650 650 650 650 7 650 650 0 650 650 17 650 650 650 650 650 650 650 33 650 650 650 650 37 650 38 650 650 650 650 40 650 650 650 650 25 650 30 650 26 650 650 650 4 32 17 14 650 650 26 650 19 650 29 650 22
650 12 650 650 650 17 650 650 650 26 650 650 650 650 650 650 650 650 16 650 650 650 38 650 650 650 650 650 650 650 650 650 7 650 650 650 4 650 650 650 650 650 8 650 650 31 650 650 650 650 20 650 650 650 650 0 650 650 35 650 650 21 650 36 650 650 650 650 14 28 650 37 650 650 650 16 25 650 650 650 650 650 650 29 650 650 650 650 9 650 650 650 650 650 42 31 650 650 650 31 650 33 650
650 650 650 10 650 650 650 650 650 44 26 650 30 650 650 650 650 650 650 650 650 650 32 650 35 650 650 650 650 650 650 650 650 650 650 15 650 650 32 650 33 37 650 650 650 650 650 58 12 650 650 650 31 60 650 650 0 650 37 650 14 650 8 650 650 650 650 7 650 650 650 35 650 650 9 650 650 650 650 650 650 24 650 650 650 650 650 650 650 650 650 650 650 650 650 650 650 54 650 650 650 650 650
19 650 16 650 29 650 650 650 25 650 650 650 650 650 18 30 13 26 650 650 28 31 650 650 28 30 650 12 29 26 17 28 650 31 650 650 650 650 650 31 40 35 650 650 23 650 33 38 650 25 650 22 38 38 17 650 650 0 650 650 650 650 650 650 28 43 23 650 650 650 35 650 26 650 650 650 650 45 650 650 650 650 18 650 13 35 21 650 650 28 14 28 21 8 650 650 19 33 19 41 19 650 650
650 43 650 29 650 18 650 650 650 14 39 650 650 650 650 650 650 650 39 650 650 650 12 650 650 650 650 650 650 650 650 650 30 650 650 29 32 650 37 650 650 650 38 650 650 650 650 650 32 650 55 650 54 650 650 35 37 650 0 650 35 650 44 23 40 650 650 31 49 31 650 18 650 650 32 20 13 650 650 650 650 37 650 650 650 650 650 650 40 40 650 650 650 650 650 36 650 650 650 36 650 650 650
42 29 650 650 37 650 650 650 22 650 650 9 650 26 650 650 650 16 21 650 650 650 650 650 650 11 650 28 650 650 650 650 33 35 59 650 650 38 650 650 650 650 29 650 650 6 650 650 650 650 36 650 650 650 650 650 650 650 650 0 650 23 650 31 650 35 650 650 650 19 9 650 20 28 650 650 650 25 650 28 35 650 650 15 650 9 650 17 29 27 41 13 650 650 28 15 650 650 650 15 650 20 650
650 650 650 18 650 53 650 650 650 45 38 650 42 650 650 650 650 650 650 650 650 650 35 650 48 650 650 650 650 650 650 650 650 650 650 6 650 650 43 650 46 50 650 650 650 650 650 71 3 650 650 650 44 74 650 650 14 650 35 650 0 650 21 650 650 650 650 11 650 650 650 40 650 650 6 55 45 650 650 650 650 36 650 650 650 650 650 650 650 650 650 650 650 650 650 650 650 67 650 650 650 650 650
650 9 650 650 650 34 650 650 650 37 650 28 650 34 650 650 650 650 12 650 650 650 650 650 650 650 650 650 650 650 650 650 22 650 71 650 24 46 650 650 650 650 14 650 650 17 650 650 650 650 13 650 650 650 650 21 650 650 650 23 650 0 650 40 650 650 650 650 20 27 30 650 650 34 650 34 37 37 650 650 650 650 650 10 650 650 650 27 12 650 650 650 650 650 21 27 650 650 650 27 650 12 650
650 650 650 15 650 650 32 650 650 49 24 650 28 650 650 650 650 650 650 650 650 31 37 650 32 650 650 650 63 59 650 650 650 650 650 24 650 650 31 31 26 30 650 650 37 650 650 50 20 650 650 650 24 53 650 650 8 650 44 650 21 650 0 42 43 650 650 15 650 650 650 39 650 650 18 650 650 650 77 650 650 23 650 650 650 650 650 650 650 650 650 650 650 650 650 650 650 47 650 650 56 650 650
650 38 30 29 650 24 20 650 650 14 25 23 25 650 650 650 650 650 29 650 650 24 12 650 29 34 650 40 650 650 650 650 28 650 650 40 33 650 19 26 650 45 34 650 32 32 650 650 650 650 650 650 41 650 650 36 650 650 23 31 650 40 42 0 18 650 650 650 650 14 650 5 22 650 650 27 15 650 650 650 650 24 650 39 34 23 650 650 35 18 650 35 650 650 650 17 650 650 650 17 56 650 650
650 650 12 35 650 650 11 650 32 31 19 20 16 650 650 650 650 27 38 650 650 13 28 650 16 650 650 24 650 46 650 650 43 650 650 650 650 650 11 14 35 33 650 650 16 650 650 650 650 46 650 650 31 650 650 650 650 28 40 650 650 650 43 18 0 650 45 650 650 22 650 22 9 650 650 650 32 650 650 650 650 20 41 650 16 19 650 650 650 1 39 25 650 36 650 20 650 44 650 20 38 650 650
28 650 48 650 16 650 650 57 21 650 650 650 650 17 650 29 43 26 650 45 650 650 650 650 650 29 9 34 650 650 650 650 650 13 24 650 650 13 650 650 650 650 650 23 650 39 23 650 650 650 60 36 650 650 33 650 650 43 650 35 650 650 650 650 650 0 650 650 650 650 26 650 45 19 650 650 650 13 69 13 5 650 650 40 50 650 650 23 650 650 32 29 650 44 36 650 650 650 650 650 650 39 12
650 650 34 650 650 650 650 18 650 650 650 650 650 650 18 650 18 650 650 650 7 42 650 650 37 650 650 35 6 6 650 14 650 650 650 650 650 650 650 41 38 32 650 63 33 650 650 21 650 3 650 650 38 20 650 650 650 23 650 650 650 650 650 650 45 650 0 650 650 650 650 650 650 650 650 650 650 650 17 650 650 650 5 650 29 650 3 650 650 650 29 650 16 18 650 650 4 20 11 650 8 650 650
650 650 650 7 650 47 650 650 650 38 27 650 650 650 650 650 650 650 650 650 650 650 27 650 650 650 650 650 650 650 650 650 650 650 650 10 650 650 32 650 38 650 650 650 650 650 650 63 8 650 650 650 35 650 650 650 7 650 31 650 11 650 15 650 650 650 650 0 650 650 650 31 650 650 4 50 39 650 650 650 650 25 650 650 650 650 650 650 650 650 650 650 650 650 650 650 650 650 650 650 650 650 650
650 13 650 650 650 32 650 650 650 40 650 650 650 650 650 650 650 650 23 650 650 650 52 650 650 650 650 650 650 650 650 650 21 650 90 79 18 64 650 650 650 650 15 650 650 35 650 650 650 650 11 650 650 650 650 14 650 650 49 650 650 20 650 650 650 650 650 650 0 38 650 650 650 52 650 30 40 650 650 650 650 650 650 30 650 650 650 46 15 650 650 650 650 650 37 41 650 650 650 650 650 31 650
650 26 32 43 650 23 29 650 650 18 36 13 35 650 650 650 650 650 17 650 650 33 24 650 650 26 650 36 650 650 650 650 21 650 650 53 27 650 29 650 650 650 23 650 38 18 650 650 650 650 38 650 650 650 650 28 650 650 31 19 650 27 650 14 22 650 650 650 38 0 650 18 20 650 650 26 18 650 650 650 650 35 650 26 650 13 650 35 24 21 650 27 650 650 650 5 650 650 650 5 650 32 650
34 650 31 650 28 650 650 650 13 650 650 15 650 20 650 43 44 9 30 650 650 650 650 650 650 7 30 23 650 650 650 650 650 26 50 650 650 30 650 650 650 650 650 650 650 15 39 650 650 650 42 44 650 650 37 650 650 35 650 9 650 30 650 650 650 26 650 650 650 650 0 650 23 22 650 650 650 17 650 21 27 650 650 20 36 16 650 12 650 650 34 8 650 41 28 23 650 650 650 23 650 23 31
650 650 34 25 650 23 21 650 650 12 25 28 26 650 650 650 650 650 32 650 650 25 7 650 31 650 650 650 650 650 650 650 30 650 650 35 34 650 21 27 45 45 36 650 34 650 650 66 36 650 650 650 41 650 650 37 35 650 18 650 40 650 39 5 22 650 650 31 650 18 650 0 27 650 34 26 13 650 650 650 650 23 650 650 650 28 650 650 650 22 650 650 650 650 650 22 650 650 650 22 650 650 650
37 650 12 650 39 650 20 650 24 34 650 13 650 650 650 650 39 19 33 650 650 21 650 650 24 17 650 18 650 650 650 650 41 39 650 650 650 650 20 23 650 40 650 650 23 25 650 650 650 650 650 650 650 650 38 650 650 26 650 20 650 650 650 22 9 45 650 650 650 20 23 27 0 650 650 650 650 40 650 650 650 650 650 650 18 12 650 650 650 8 34 16 650 34 650 16 650 650 650 16 40 650 650
650 43 650 650 650 650 650 650 28 650 650 36 650 3 650 650 650 29 40 650 650 650 650 650 650 29 28 650 650 650 650 650 650 650 38 650 650 12 650 650 650 650 650 41 650 28 650 650 650 650 42 650 650 650 650 650 650 650 650 28 650 34 650 650 650 19 650 650 52 650 22 650 650 0 650 650 650 8 650 6 15 650 650 25 650 650 650 11 650 650 650 650 650 650 17 42 650 650 650 650 650 22 650
650 650 650 12 650 49 650 650 650 41 650 650 650 650 650 650 650 650 650 650 650 650 30 650 650 650 650 650 650 650 650 650 650 650 650 6 650 650 650 650 41 650 650 650 650 650 650 67 4 650 650 650 39 650 650 650 9 650 32 650 6 650 18 650 650 650 650 4 650 650 650 34 650 650 0 51 41 650 650 650 650 29 650 650 650 650 650 650 650 650 650 650 650 650 650 650 650 650 650 650 650 650 650
650 25 650 47 650 3 650 650 650 14 650 650 650 650 650 650 650 650 24 650 650 650 25 650 650 650 650 650 650 650 650 650 12 650 650 49 12 650 650 650 650 650 20 650 650 38 650 650 52 650 36 650 650 650 650 16 650 650 20 650 55 34 650 27 650 650 650 50 30 26 650 26 650 650 51 0 13 650 650 650 650 49 650 40 650 650 650 650 22 650 650 650 650 650 55 30 650 650 650 31 650 45 650
650 32 650 35 650 10 650 650 650 1 650 650 650 650 650 650 650 650 26 650 650 650 12 650 650 650 650 650 650 650 650 650 19 650 650 40 22 650 33 650 650 650 27 650 650 35 650 650 42 650 650 650 650 650 650 25 650 650 13 650 45 37 650 15 32 650 650 39 40 18 650 13 650 650 41 13 0 650 650 650 650 36 650 40 650 650 650 650 28 33 650 650 650 650 650 23 650 650 650 24 650 650 650
36 650 46 650 25 650 650 650 20 650 650 33 650 5 650 40 50 22 41 650 650 650 650 650 650 23 22 34 650 650 650 650 650 22 35 650 650 13 650 650 650 650 650 36 650 27 35 650 650 650 47 45 650 650 40 650 650 45 650 25 650 37 650 650 650 13 650 650 650 650 17 650 40 8 650 650 650 0 650 3 11 650 650 27 50 33 650 10 650 650 38 24 650 49 24 40 650 650 650 650 650 25 24
41 650 650 650 53 650 650 13 650 650 650 650 650 650 24 42 27 650 650 25 10 650 650 26 650 650 61 650 14 18 650 12 650 56 78 650 650 82 650 650 52 47 650 65 650 650 49 29 650 17 650 33 650 27 650 650 650 650 650 650 650 650 77 650 650 69 17 650 650 650 650 650 650 650 650 650 650 650 0 650 74 650 20 650 650 650 17 650 650 650 650 650 20 30 98 650 18 31 19 650 24 650 58
38 650 650 650 26 650 650 650 24 650 650 650 650 4 650 650 650 25 650 650 650 650 650 650 650 26 22 37 650 650 650 650 650 23 34 650 650 10 650 650 650 650 650 35 650 30 650 650 650 650 47 650 650 650 650 650 650 650 650 28 650 650 650 650 650 13 650 650 650 650 21 650 650 6 650 650 650 3 650 0 10 650 650 29 650 650 650 12 650 650 41 650 650 650 23 650 650 650 650 650 650 26 650
33 650 650 650 21 650 650 62 24 650 650 650 650 14 650 35 650 28 650 50 650 650 650 650 650 31 14 38 650 650 650 650 650 18 25 650 650 7 650 650 650 650 650 26 650 38 28 650 650 650 57 650 650 650 650 650 650 650 650 35 650 650 650 650 650 5 650 650 650 650 27 650 650 15 650 650 650 11 74 10 0 650 650 38 650 650 650 21 650 650 37 650 650 650 32 650 650 650 650 650 650 36 17
650 650 26 18 650 46 9 650 650 35 3 650 6 650 650 650 650 650 650 650 650 9 25 650 12 650 650 650 650 650 650 650 52 650 650 34 650 650 8 10 22 23 650 650 17 650 650 45 33 650 650 650 18 47 650 650 24 650 37 650 36 650 23 24 20 650 650 25 650 35 650 23 650 650 29 49 36 650 650 650 650 0 650 650 650 650 650 650 650 21 650 650 650 650 650 650 650 39 650 36 42 650 650
29 650 30 650 650 650 650 19 42 650 650 650 650 650 15 650 14 650 650 24 11 39 650 20 34 650 650 30 11 10 17 16 650 650 650 650 650 650 650 38 37 32 650 650 30 650 650 24 650 7 650 650 37 23 25 650 650 18 650 650 650 650 650 650 41 650 5 650 650 650 650 650 650 650 650 650 650 650 20 650 650 650 0 650 25 650 3 650 650 650 25 650 14 13 650 650 2 22 9 650 6 650 650
650 18 650 650 650 39 650 650 34 40 650 22 650 25 650 650 650 29 15 650 650 650 650 650 650 25 650 650 650 650 650 650 29 650 62 650 32 38 650 650 650 650 22 650 650 10 650 650 650 650 22 650 650 650 650 29 650 650 650 15 650 10 650 39 650 40 650 650 30 26 20 650 650 25 650 40 40 27 650 29 38 650 650 0 650 23 650 17 20 650 650 650 650 650 17 24 650 650 650 24 650 6 650
32 650 6 650 39 650 19 650 30 650 650 650 21 650 650 650 26 28 650 650 36 17 650 650 15 29 650 16 34 30 650 650 650 40 650 650 650 650 20 17 30 26 650 650 11 650 650 37 650 30 650 650 27 38 30 650 650 13 650 650 650 650 650 34 16 50 29 650 650 650 36 650 18 650 650 650 650 50 650 650 650 650 25 650 0 30 28 650 650 16 27 27 650 21 650 650 27 31 29 34 22 650 650
650 650 24 650 650 650 650 650 24 31 650 1 650 650 650 650 650 17 22 650 650 650 650 650 650 12 650 25 650 650 650 650 32 650 650 650 650 650 30 650 650 650 650 650 34 13 650 650 650 650 650 650 650 650 650 650 650 35 650 9 650 650 650 23 19 650 650 650 650 13 16 28 12 650 650 650 650 33 650 650 650 650 650 23 30 0 650 26 650 18 40 13 650 650 650 8 650 650 650 8 650 650 650
650 650 650 650 650 650 650 17 650 650 650 650 650 650 16 650 15 650 650 23 7 650 650 20 650 650 650 650 9 8 18 13 650 650 650 650 650 650 650 650 650 34 650 60 33 650 650 650 650 6 650 650 650 23 26 650 650 21 650 650 650 650 650 650 650 650 3 650 650 650 650 650 650 650 650 650 650 650 17 650 650 650 3 650 28 650 0 650 650 650 27 650 13 15 650 650 2 22 8 650 8 650 650
41 35 650 650 32 650 650 650 22 650 650 25 650 9 650 650 650 20 31 650 650 650 650 650 650 19 31 34 650 650 650 650 44 29 46 650 650 22 650 650 650 650 38 46 650 18 650 650 650 650 37 650 650 650 650 650 650 650 650 17 650 27 650 650 650 23 650 650 46 35 12 650 650 11 650 650 650 10 650 12 21 650 650 17 650 26 650 0 37 650 42 21 650 650 17 31 650 650 650 31 650 16 650
650 3 650 650 650 23 650 650 650 29 650 31 650 650 650 650 650 650 9 650 650 650 650 650 650 650 650 650 650 650 650 650 11 650 650 650 12 650 650 650 650 650 2 650 650 23 650 650 650 650 15 650 650 650 650 9 650 650 40 29 650 12 650 35 650 650 650 650 15 24 650 650 650 650 650 22 28 650 650 650 650 650 650 20 650 650 650 37 0 650 650 650 650 650 33 26 650 650 650 26 650 24 650
650 650 12 650 650 650 12 650 31 32 20 19 17 650 650 650 650 26 37 650 650 14 29 650 17 24 650 23 650 650 650 650 42 650 650 650 650 650 12 15 650 33 650 650 17 32 650 650 650 650 650 650 650 650 650 650 650 28 40 27 650 650 650 18 1 650 650 650 650 21 650 22 8 650 650 650 33 650 650 650 650 21 650 650 16 18 650 650 650 0 38 24 650 650 650 19 650 650 650 19 38 650 650
5 650 28 650 17 650 650 650 21 650 650 650 650 43 14 16 12 25 650 19 32 650 650 14 650 30 25 16 650 35 12 27 650 19 47 650 650 650 650 650 650 49 650 37 37 650 19 650 650 32 650 11 650 650 4 650 650 14 650 41 650 650 650 650 39 32 29 650 650 650 34 650 34 650 650 650 650 38 650 41 37 650 25 650 27 40 27 42 650 38 0 28 19 13 650 650 26 45 20 47 29 650 22
29 650 23 650 26 650 650 650 10 650 650 13 650 650 650 650 37 4 650 650 650 650 650 650 650 2 650 15 650 650 650 650 650 25 650 650 650 650 650 650 650 650 650 650 36 19 650 650 650 650 650 650 650 650 32 650 650 28 650 13 650 650 650 35 25 29 650 650 650 27 8 650 16 650 650 650 650 24 650 650 650 650 650 650 27 13 650 21 650 24 28 0 650 34 650 21 650 650 650 21 46 650 650
21 650 650 650 650 650 650 10 650 650 650 650 650 650 4 24 9 650 650 10 14 650 650 8 650 650 41 650 21 650 7 9 650 650 60 650 650 650 650 650 650 650 650 48 650 650 30 650 650 650 650 14 650 36 17 650 650 21 650 650 650 650 650 650 650 650 16 650 650 650 650 650 650 650 650 650 650 650 20 650 650 650 14 650 650 650 13 650 650 650 19 650 0 13 650 650 13 650 5 650 20 650 38
17 650 24 650 29 650 650 22 30 650 650 650 650 650 10 26 5 32 650 20 21 38 650 14 34 650 650 19 24 22 10 20 650 31 650 650 650 650 650 37 43 38 650 650 29 650 31 36 650 20 650 17 42 36 14 650 650 8 650 650 650 650 650 650 36 44 18 650 650 650 41 650 34 650 650 650 650 49 30 650 650 650 13 650 21 650 15 650 650 650 13 34 13 0 650 650 14 33 11 650 16 650 650
650 30 650 650 650 650 650 87 39 650 650 37 650 19 650 64 650 37 31 77 650 650 650 650 650 35 45 650 650 650 650 650 650 45 54 650 45 29 650 650 650 650 650 58 650 25 58 650 650 650 26 650 650 650 650 42 650 650 650 28 650 21 650 650 650 36 650 650 37 650 28 650 650 17 650 55 650 24 98 23 32 650 650 17 650 650 650 17 33 650 650 650 650 650 0 40 650 650 650 650 650 11 48
650 28 28 650 650 28 650 650 650 23 650 8 650 40 650 650 650 25 18 650 650 650 28 650 650 20 650 32 650 650 650 650 25 650 650 650 31 650 29 650 650 650 26 650 650 15 650 650 650 650 38 650 650 650 650 31 650 650 36 15 650 27 650 17 20 650 650 650 41 5 23 22 16 42 650 30 23 40 650 650 650 650 650 24 650 8 650 31 26 19 650 21 650 650 40 0 650 650 650 1 650 30 650
650 650 650 650 650 650 650 17 650 650 650 650 650 650 15 650 14 650 650 23 9 650 650 20 650 650 650 650 10 9 17 14 650 650 650 650 650 650 650 650 650 33 650 650 32 650 650 650 650 7 650 650 650 23 26 650 650 19 650 650 650 650 650 650 650 650 4 650 650 650 650 650 650 650 650 650 650 650 18 650 650 650 2 650 27 650 2 650 650 650 26 650 13 14 650 650 0 22 8 650 8 650 650
650 650 37 53 650 650 650 38 650 650 37 650 35 650 650 650 35 650 650 650 25 35 650 650 30 650 650 44 17 15 650 34 650 650 650 650 650 650 650 34 21 17 650 81 28 650 650 6 650 17 650 650 24 8 650 650 54 33 650 650 67 650 47 650 44 650 20 650 650 650 650 650 650 650 650 650 650 650 31 650 650 39 22 650 31 650 22 650 650 650 45 650 650 33 650 650 22 0 30 650 17 650 650
23 650 650 650 650 650 650 12 40 650 650 650 650 650 7 28 8 650 650 15 12 650 650 12 650 650 650 30 17 17 10 10 650 650 650 650 650 650 650 650 650 40 650 52 36 650 650 650 650 14 650 18 650 31 19 650 650 19 650 650 650 650 650 650 650 650 11 650 650 650 650 650 650 650 650 650 650 650 19 650 650 650 9 650 29 650 8 650 650 650 20 650 5 11 650 650 8 30 0 650 15 650 650
650 28 28 650 650 28 29 650 31 23 36 8 35 650 650 650 650 25 18 650 650 32 28 650 650 20 650 31 650 650 650 650 25 650 650 650 31 650 29 650 650 650 26 650 36 15 650 650 650 650 650 650 650 650 650 31 650 41 36 15 650 27 650 17 20 650 650 650 650 5 23 22 16 650 650 31 24 650 650 650 650 36 650 24 34 8 650 31 26 19 47 21 650 650 650 1 650 650 650 0 650 650 650
33 650 28 650 650 650 38 650 44 650 39 650 36 650 21 650 19 45 650 650 15 34 650 650 29 650 650 31 12 8 23 21 650 650 650 650 650 650 39 33 31 26 650 650 25 650 650 20 650 8 650 650 31 20 29 650 650 19 650 650 650 650 56 56 38 650 8 650 650 650 650 650 40 650 650 650 650 650 24 650 650 42 6 650 22 650 8 650 650 38 29 46 20 16 650 650 8 17 15 650 0 650 650
650 21 650 650 650 650 650 650 36 650 650 28 650 22 650 650 650 32 21 650 650 650 650 650 650 29 46 650 650 650 650 650 33 650 59 650 36 34 650 650 650 650 26 61 650 15 650 650 650 650 21 650 650 650 650 33 650 650 650 20 650 12 650 650 650 39 650 650 31 32 23 650 650 22 650 45 650 25 650 26 36 650 650 6 650 650 650 16 24 650 650 650 650 650 11 30 650 650 650 650 650 0 650
18 650 650 650 6 650 650 45 21 650 650 650 650 650 650 17 650 27 650 33 52 650 650 31 650 650 3 30 57 650 650 46 650 6 26 650 650 24 650 650 650 650 650 18 650 650 11 650 650 650 650 24 650 71 22 650 650 650 650 650 650 650 650 650 650 12 650 650 650 650 31 650 650 650 650 650 650 24 58 650 17 650 650 650 650 650 650 650 650 650 22 650 38 650 48 650 650 650 650 650 650 650 0
EOF
